3	25
833	687	193	428	68	459	586	206	894	684	73	915	739	677	653	11	526	271	422	254	590	196	314	36	555	
893	517	771	951	720	61	892	342	552	532	148	328	786	814	666	893	352	662	698	958	294	486	588	323	375	
3651	3651	3651	
